(set-logic QF_NRA)
(set-info :source |Benchmarks generated from hycomp (https://es-static.fbk.eu/tools/hycomp/). BMC instances of non-linear hybrid automata taken from: Alessandro Cimatti, Sergio Mover, Stefano Tonetta, A quantifier-free SMT encoding of non-linear hybrid automata, FMCAD 2012 and Alessandro Cimatti, Sergio Mover, Stefano Tonetta, Quantier-free encoding of invariants for Hybrid Systems, Formal Methods in System Design. This instance solves a BMC problem of depth 2 and uses the quantifier free encoding with lemmas encoding. Contacts: Sergio Mover (mover@fbk.eu), Stefano Tonetta (tonettas@fbk.eu), Alessandro Cimatti (cimatti@fbk.eu).|)
(set-info :smt-lib-version 2.0)
(set-info :category "industrial")
(set-info :status unsat)
;; MathSAT API call trace
;; generated on Mon Mar 19 10:41:56 2012
(declare-fun b.speed_x__AT1 () Real)
(declare-fun b.event_is_timed__AT2 () Bool)
(declare-fun b.time__AT1 () Real)
(declare-fun b.x__AT1 () Real)
(declare-fun b.event_is_timed__AT1 () Bool)
(declare-fun b.counter.0__AT1 () Bool)
(declare-fun b.EVENT.1__AT0 () Bool)
(declare-fun b.speed_loss__AT0 () Real)
(declare-fun b.counter.1__AT1 () Bool)
(declare-fun b.speed_x__AT0 () Real)
(declare-fun b.counter.2__AT1 () Bool)
(declare-fun b.time__AT2 () Real)
(declare-fun b.time__AT0 () Real)
(declare-fun b.y__AT2 () Real)
(declare-fun b.counter.2__AT0 () Bool)
(declare-fun b.counter.3__AT1 () Bool)
(declare-fun b.delta__AT2 () Real)
(declare-fun b.counter.0__AT2 () Bool)
(declare-fun b.x__AT2 () Real)
(declare-fun b.bool_atom__AT1 () Bool)
(declare-fun b.EVENT.0__AT2 () Bool)
(declare-fun b.counter.1__AT2 () Bool)
(declare-fun b.x__AT0 () Real)
(declare-fun b.EVENT.1__AT2 () Bool)
(declare-fun b.counter.2__AT2 () Bool)
(declare-fun b.speed_y__AT1 () Real)
(declare-fun b.counter.3__AT2 () Bool)
(declare-fun b.delta__AT1 () Real)
(declare-fun b.bool_atom__AT0 () Bool)
(declare-fun b.y__AT0 () Real)
(declare-fun b.EVENT.1__AT1 () Bool)
(declare-fun b.bool_atom__AT2 () Bool)
(declare-fun b.EVENT.0__AT1 () Bool)
(declare-fun b.counter.0__AT0 () Bool)
(declare-fun b.speed_x__AT2 () Real)
(declare-fun b.delta__AT0 () Real)
(declare-fun b.counter.1__AT0 () Bool)
(declare-fun b.speed_y__AT2 () Real)
(declare-fun b.y__AT1 () Real)
(declare-fun b.EVENT.0__AT0 () Bool)
(declare-fun b.speed_y__AT0 () Real)
(declare-fun b.event_is_timed__AT0 () Bool)
(declare-fun b.counter.3__AT0 () Bool)
(assert (let ((.def_719 (* (- 1.0) b.speed_x__AT2)))
(let ((.def_720 (* b.speed_x__AT2 .def_719)))
(let ((.def_721 (* (- 1.0) .def_720)))
(let ((.def_749 (* 2.0 .def_721)))
(let ((.def_807 (* (- 1.0) .def_749)))
(let ((.def_808 (* b.delta__AT2 .def_807)))
(let ((.def_809 (* (- 5.0) .def_808)))
(let ((.def_657 (* (- 1.0) b.x__AT2)))
(let ((.def_732 (* b.speed_x__AT2 .def_657)))
(let ((.def_754 (* (- 5.0) .def_732)))
(let ((.def_814 (+ .def_754 .def_809)))
(let ((.def_727 (* b.x__AT2 .def_719)))
(let ((.def_752 (* (- 5.0) .def_727)))
(let ((.def_815 (+ .def_752 .def_814)))
(let ((.def_756 (* (- 49.0) b.delta__AT2)))
(let ((.def_816 (+ .def_756 .def_815)))
(let ((.def_758 (* 5.0 b.speed_y__AT2)))
(let ((.def_817 (+ .def_758 .def_816)))
(let ((.def_820 (<= 0.0 .def_817)))
(let ((.def_827 (not .def_820)))
(let ((.def_733 (* (- 1.0) .def_732)))
(let ((.def_728 (* (- 1.0) .def_727)))
(let ((.def_766 (+ .def_728 .def_733)))
(let ((.def_767 (+ b.speed_y__AT2 .def_766)))
(let ((.def_768 (<= 0.0 .def_767)))
(let ((.def_828 (or .def_768 .def_827)))
(let ((.def_818 (<= .def_817 0.0 )))
(let ((.def_782 (<= .def_767 0.0 )))
(let ((.def_783 (not .def_782)))
(let ((.def_826 (or .def_783 .def_818)))
(let ((.def_829 (and .def_826 .def_828)))
(let ((.def_798 (<= .def_720 (- (/ 49 10)))))
(let ((.def_830 (or .def_798 .def_829)))
(let ((.def_822 (not .def_818)))
(let ((.def_823 (or .def_782 .def_822)))
(let ((.def_769 (not .def_768)))
(let ((.def_821 (or .def_769 .def_820)))
(let ((.def_824 (and .def_821 .def_823)))
(let ((.def_803 (<= (- (/ 49 10)) .def_720)))
(let ((.def_825 (or .def_803 .def_824)))
(let ((.def_831 (and .def_825 .def_830)))
(let ((.def_819 (and .def_782 .def_818)))
(let ((.def_832 (and .def_819 .def_831)))
(let ((.def_750 (* b.delta__AT2 .def_749)))
(let ((.def_751 (* 5.0 .def_750)))
(let ((.def_760 (+ .def_754 .def_751)))
(let ((.def_761 (+ .def_752 .def_760)))
(let ((.def_762 (+ .def_756 .def_761)))
(let ((.def_763 (+ .def_758 .def_762)))
(let ((.def_780 (<= .def_763 0.0 )))
(let ((.def_781 (not .def_780)))
(let ((.def_801 (or .def_781 .def_782)))
(let ((.def_764 (<= 0.0 .def_763)))
(let ((.def_800 (or .def_764 .def_769)))
(let ((.def_802 (and .def_800 .def_801)))
(let ((.def_804 (or .def_802 .def_803)))
(let ((.def_765 (not .def_764)))
(let ((.def_796 (or .def_765 .def_768)))
(let ((.def_795 (or .def_780 .def_783)))
(let ((.def_797 (and .def_795 .def_796)))
(let ((.def_799 (or .def_797 .def_798)))
(let ((.def_805 (and .def_799 .def_804)))
(let ((.def_794 (and .def_764 .def_768)))
(let ((.def_806 (and .def_794 .def_805)))
(let ((.def_833 (or .def_806 .def_832)))
(let ((.def_734 (* b.delta__AT2 .def_733)))
(let ((.def_735 (* 10.0 .def_734)))
(let ((.def_729 (* b.delta__AT2 .def_728)))
(let ((.def_730 (* 10.0 .def_729)))
(let ((.def_741 (+ .def_730 .def_735)))
(let ((.def_718 (* b.delta__AT2 b.delta__AT2)))
(let ((.def_722 (* .def_718 .def_721)))
(let ((.def_723 (* 10.0 .def_722)))
(let ((.def_742 (+ .def_723 .def_741)))
(let ((.def_725 (* (- 49.0) .def_718)))
(let ((.def_743 (+ .def_725 .def_742)))
(let ((.def_716 (* b.speed_y__AT2 b.delta__AT2)))
(let ((.def_717 (* 10.0 .def_716)))
(let ((.def_744 (+ .def_717 .def_743)))
(let ((.def_703 (* b.x__AT2 .def_657)))
(let ((.def_737 (* (- 10.0) .def_703)))
(let ((.def_745 (+ .def_737 .def_744)))
(let ((.def_739 (* 10.0 b.y__AT2)))
(let ((.def_746 (+ .def_739 .def_745)))
(let ((.def_774 (<= .def_746 0.0 )))
(let ((.def_788 (not .def_774)))
(let ((.def_772 (<= b.y__AT2 .def_703)))
(let ((.def_789 (or .def_772 .def_788)))
(let ((.def_704 (<= .def_703 b.y__AT2)))
(let ((.def_786 (not .def_704)))
(let ((.def_747 (<= 0.0 .def_746)))
(let ((.def_787 (or .def_747 .def_786)))
(let ((.def_790 (and .def_787 .def_789)))
(let ((.def_784 (or .def_781 .def_783)))
(let ((.def_785 (not .def_784)))
(let ((.def_791 (or .def_785 .def_790)))
(let ((.def_776 (not .def_747)))
(let ((.def_777 (or .def_704 .def_776)))
(let ((.def_773 (not .def_772)))
(let ((.def_775 (or .def_773 .def_774)))
(let ((.def_778 (and .def_775 .def_777)))
(let ((.def_770 (or .def_765 .def_769)))
(let ((.def_771 (not .def_770)))
(let ((.def_779 (or .def_771 .def_778)))
(let ((.def_792 (and .def_779 .def_791)))
(let ((.def_748 (and .def_704 .def_747)))
(let ((.def_793 (and .def_748 .def_792)))
(let ((.def_834 (and .def_793 .def_833)))
(let ((.def_70 (<= b.speed_loss__AT0 (/ 1 2))))
(let ((.def_67 (<= (/ 1 10) b.speed_loss__AT0)))
(let ((.def_71 (and .def_67 .def_70)))
(let ((.def_835 (and .def_71 .def_834)))
(let ((.def_307 (not b.counter.0__AT1)))
(let ((.def_297 (not b.counter.1__AT1)))
(let ((.def_708 (and .def_297 .def_307)))
(let ((.def_711 (or b.counter.3__AT1 .def_708)))
(let ((.def_302 (not b.counter.2__AT1)))
(let ((.def_709 (and .def_302 .def_708)))
(let ((.def_316 (not b.counter.3__AT1)))
(let ((.def_710 (or .def_316 .def_709)))
(let ((.def_712 (and .def_710 .def_711)))
(let ((.def_705 (and .def_71 .def_704)))
(let ((.def_700 (not b.EVENT.0__AT2)))
(let ((.def_698 (not b.EVENT.1__AT2)))
(let ((.def_701 (or .def_698 .def_700)))
(let ((.def_6 (not b.counter.0__AT2)))
(let ((.def_4 (not b.counter.1__AT2)))
(let ((.def_691 (or .def_4 .def_6)))
(let ((.def_695 (or b.counter.3__AT2 .def_691)))
(let ((.def_692 (or b.counter.2__AT2 .def_691)))
(let ((.def_9 (not b.counter.2__AT2)))
(let ((.def_690 (or .def_6 .def_9)))
(let ((.def_693 (and .def_690 .def_692)))
(let ((.def_12 (not b.counter.3__AT2)))
(let ((.def_694 (or .def_12 .def_693)))
(let ((.def_696 (and .def_694 .def_695)))
(let ((.def_702 (and .def_696 .def_701)))
(let ((.def_706 (and .def_702 .def_705)))
(let ((.def_685 (<= 0.0 b.delta__AT1)))
(let ((.def_394 (not b.EVENT.0__AT1)))
(let ((.def_392 (not b.EVENT.1__AT1)))
(let ((.def_529 (and .def_392 .def_394)))
(let ((.def_531 (not .def_529)))
(let ((.def_686 (or .def_531 .def_685)))
(let ((.def_687 (or b.EVENT.1__AT1 .def_686)))
(let ((.def_569 (= b.bool_atom__AT1 b.bool_atom__AT2)))
(let ((.def_565 (= b.counter.0__AT2 b.counter.0__AT1)))
(let ((.def_563 (= b.counter.1__AT2 b.counter.1__AT1)))
(let ((.def_561 (= b.counter.2__AT2 b.counter.2__AT1)))
(let ((.def_560 (= b.counter.3__AT2 b.counter.3__AT1)))
(let ((.def_562 (and .def_560 .def_561)))
(let ((.def_564 (and .def_562 .def_563)))
(let ((.def_566 (and .def_564 .def_565)))
(let ((.def_681 (and .def_566 .def_569)))
(let ((.def_682 (or .def_531 .def_681)))
(let ((.def_683 (or b.EVENT.1__AT1 .def_682)))
(let ((.def_669 (* (- 10.0) b.y__AT2)))
(let ((.def_410 (* b.delta__AT1 b.delta__AT1)))
(let ((.def_417 (* (- 49.0) .def_410)))
(let ((.def_673 (+ .def_417 .def_669)))
(let ((.def_408 (* b.speed_y__AT1 b.delta__AT1)))
(let ((.def_409 (* 10.0 .def_408)))
(let ((.def_674 (+ .def_409 .def_673)))
(let ((.def_431 (* 10.0 b.y__AT1)))
(let ((.def_675 (+ .def_431 .def_674)))
(let ((.def_676 (= .def_675 0.0 )))
(let ((.def_664 (* (- 5.0) b.speed_y__AT2)))
(let ((.def_448 (* (- 49.0) b.delta__AT1)))
(let ((.def_665 (+ .def_448 .def_664)))
(let ((.def_450 (* 5.0 b.speed_y__AT1)))
(let ((.def_666 (+ .def_450 .def_665)))
(let ((.def_667 (= .def_666 0.0 )))
(let ((.def_656 (* b.speed_x__AT1 b.delta__AT1)))
(let ((.def_660 (+ .def_657 .def_656)))
(let ((.def_661 (+ b.x__AT1 .def_660)))
(let ((.def_662 (= .def_661 0.0 )))
(let ((.def_555 (= b.speed_x__AT1 b.speed_x__AT2)))
(let ((.def_663 (and .def_555 .def_662)))
(let ((.def_668 (and .def_663 .def_667)))
(let ((.def_677 (and .def_668 .def_676)))
(let ((.def_678 (or .def_531 .def_677)))
(let ((.def_552 (= b.y__AT1 b.y__AT2)))
(let ((.def_549 (= b.x__AT1 b.x__AT2)))
(let ((.def_650 (and .def_549 .def_552)))
(let ((.def_651 (and .def_555 .def_650)))
(let ((.def_558 (= b.speed_y__AT1 b.speed_y__AT2)))
(let ((.def_652 (and .def_558 .def_651)))
(let ((.def_647 (= b.delta__AT1 0.0 )))
(let ((.def_648 (and .def_529 .def_647)))
(let ((.def_649 (not .def_648)))
(let ((.def_653 (or .def_649 .def_652)))
(let ((.def_654 (or b.EVENT.1__AT1 .def_653)))
(let ((.def_639 (and .def_555 .def_558)))
(let ((.def_640 (and .def_566 .def_639)))
(let ((.def_641 (or b.bool_atom__AT1 .def_640)))
(let ((.def_615 (or .def_6 b.counter.0__AT1)))
(let ((.def_614 (or b.counter.0__AT2 .def_307)))
(let ((.def_616 (and .def_614 .def_615)))
(let ((.def_617 (and .def_4 .def_616)))
(let ((.def_618 (or b.counter.1__AT1 .def_617)))
(let ((.def_613 (or b.counter.1__AT2 .def_297)))
(let ((.def_619 (and .def_613 .def_618)))
(let ((.def_630 (and .def_9 .def_619)))
(let ((.def_631 (or b.counter.2__AT1 .def_630)))
(let ((.def_625 (and .def_4 .def_307)))
(let ((.def_626 (or b.counter.1__AT1 .def_625)))
(let ((.def_627 (and .def_613 .def_626)))
(let ((.def_628 (and b.counter.2__AT2 .def_627)))
(let ((.def_629 (or .def_302 .def_628)))
(let ((.def_632 (and .def_629 .def_631)))
(let ((.def_633 (and b.counter.3__AT2 .def_632)))
(let ((.def_634 (or b.counter.3__AT1 .def_633)))
(let ((.def_620 (and b.counter.2__AT2 .def_619)))
(let ((.def_621 (or b.counter.2__AT1 .def_620)))
(let ((.def_609 (or b.counter.1__AT2 b.counter.1__AT1)))
(let ((.def_607 (and .def_4 b.counter.0__AT2)))
(let ((.def_608 (or .def_297 .def_607)))
(let ((.def_610 (and .def_608 .def_609)))
(let ((.def_611 (and .def_9 .def_610)))
(let ((.def_612 (or .def_302 .def_611)))
(let ((.def_622 (and .def_612 .def_621)))
(let ((.def_623 (and .def_12 .def_622)))
(let ((.def_624 (or .def_316 .def_623)))
(let ((.def_635 (and .def_624 .def_634)))
(let ((.def_283 (* b.speed_y__AT1 b.speed_y__AT1)))
(let ((.def_281 (* b.speed_x__AT1 b.speed_x__AT1)))
(let ((.def_599 (+ .def_281 .def_283)))
(let ((.def_269 (* (- 1.0) b.speed_loss__AT0)))
(let ((.def_270 (+ 1.0 .def_269)))
(let ((.def_286 (* .def_270 .def_270)))
(let ((.def_600 (* .def_286 .def_599)))
(let ((.def_602 (* (- 1.0) .def_600)))
(let ((.def_596 (* b.speed_y__AT2 b.speed_y__AT2)))
(let ((.def_603 (+ .def_596 .def_602)))
(let ((.def_594 (* b.speed_x__AT2 b.speed_x__AT2)))
(let ((.def_604 (+ .def_594 .def_603)))
(let ((.def_605 (= .def_604 0.0 )))
(let ((.def_587 (* b.speed_y__AT1 .def_270)))
(let ((.def_266 (* (- 2.0) b.x__AT1)))
(let ((.def_267 (* (- 1.0) .def_266)))
(let ((.def_584 (* .def_267 .def_270)))
(let ((.def_585 (* b.speed_x__AT1 .def_584)))
(let ((.def_590 (+ .def_585 .def_587)))
(let ((.def_581 (* (- 2.0) b.x__AT2)))
(let ((.def_582 (* (- 1.0) .def_581)))
(let ((.def_583 (* b.speed_x__AT2 .def_582)))
(let ((.def_591 (+ .def_583 .def_590)))
(let ((.def_592 (+ b.speed_y__AT2 .def_591)))
(let ((.def_593 (= .def_592 0.0 )))
(let ((.def_606 (and .def_593 .def_605)))
(let ((.def_636 (and .def_606 .def_635)))
(let ((.def_580 (not b.bool_atom__AT1)))
(let ((.def_637 (or .def_580 .def_636)))
(let ((.def_268 (* b.speed_x__AT1 .def_267)))
(let ((.def_575 (+ b.speed_y__AT1 .def_268)))
(let ((.def_576 (<= 0.0 .def_575)))
(let ((.def_577 (not .def_576)))
(let ((.def_351 (* (- 1.0) b.x__AT1)))
(let ((.def_397 (* b.x__AT1 .def_351)))
(let ((.def_574 (= b.y__AT1 .def_397)))
(let ((.def_578 (and .def_574 .def_577)))
(let ((.def_579 (= b.bool_atom__AT1 .def_578)))
(let ((.def_638 (and .def_579 .def_637)))
(let ((.def_642 (and .def_638 .def_641)))
(let ((.def_643 (and .def_549 .def_642)))
(let ((.def_644 (and .def_552 .def_643)))
(let ((.def_645 (or .def_529 .def_644)))
(let ((.def_646 (or b.EVENT.1__AT1 .def_645)))
(let ((.def_655 (and .def_646 .def_654)))
(let ((.def_679 (and .def_655 .def_678)))
(let ((.def_536 (= b.time__AT1 b.time__AT2)))
(let ((.def_550 (and .def_536 .def_549)))
(let ((.def_553 (and .def_550 .def_552)))
(let ((.def_556 (and .def_553 .def_555)))
(let ((.def_559 (and .def_556 .def_558)))
(let ((.def_567 (and .def_559 .def_566)))
(let ((.def_570 (and .def_567 .def_569)))
(let ((.def_571 (or .def_392 .def_570)))
(let ((.def_539 (* (- 1.0) b.time__AT2)))
(let ((.def_542 (+ b.delta__AT1 .def_539)))
(let ((.def_543 (+ b.time__AT1 .def_542)))
(let ((.def_544 (= .def_543 0.0 )))
(let ((.def_545 (or .def_531 .def_544)))
(let ((.def_546 (or b.EVENT.1__AT1 .def_545)))
(let ((.def_537 (or .def_529 .def_536)))
(let ((.def_538 (or b.EVENT.1__AT1 .def_537)))
(let ((.def_547 (and .def_538 .def_546)))
(let ((.def_572 (and .def_547 .def_571)))
(let ((.def_533 (= .def_531 b.event_is_timed__AT2)))
(let ((.def_530 (= b.event_is_timed__AT1 .def_529)))
(let ((.def_534 (and .def_530 .def_533)))
(let ((.def_573 (and .def_534 .def_572)))
(let ((.def_680 (and .def_573 .def_679)))
(let ((.def_684 (and .def_680 .def_683)))
(let ((.def_688 (and .def_684 .def_687)))
(let ((.def_689 (and .def_392 .def_688)))
(let ((.def_707 (and .def_689 .def_706)))
(let ((.def_713 (and .def_707 .def_712)))
(let ((.def_411 (* (- 1.0) b.speed_x__AT1)))
(let ((.def_412 (* b.speed_x__AT1 .def_411)))
(let ((.def_413 (* (- 1.0) .def_412)))
(let ((.def_441 (* 2.0 .def_413)))
(let ((.def_499 (* (- 1.0) .def_441)))
(let ((.def_500 (* b.delta__AT1 .def_499)))
(let ((.def_501 (* (- 5.0) .def_500)))
(let ((.def_424 (* b.speed_x__AT1 .def_351)))
(let ((.def_446 (* (- 5.0) .def_424)))
(let ((.def_506 (+ .def_446 .def_501)))
(let ((.def_419 (* b.x__AT1 .def_411)))
(let ((.def_444 (* (- 5.0) .def_419)))
(let ((.def_507 (+ .def_444 .def_506)))
(let ((.def_508 (+ .def_448 .def_507)))
(let ((.def_509 (+ .def_450 .def_508)))
(let ((.def_512 (<= 0.0 .def_509)))
(let ((.def_519 (not .def_512)))
(let ((.def_425 (* (- 1.0) .def_424)))
(let ((.def_420 (* (- 1.0) .def_419)))
(let ((.def_458 (+ .def_420 .def_425)))
(let ((.def_459 (+ b.speed_y__AT1 .def_458)))
(let ((.def_460 (<= 0.0 .def_459)))
(let ((.def_520 (or .def_460 .def_519)))
(let ((.def_510 (<= .def_509 0.0 )))
(let ((.def_474 (<= .def_459 0.0 )))
(let ((.def_475 (not .def_474)))
(let ((.def_518 (or .def_475 .def_510)))
(let ((.def_521 (and .def_518 .def_520)))
(let ((.def_490 (<= .def_412 (- (/ 49 10)))))
(let ((.def_522 (or .def_490 .def_521)))
(let ((.def_514 (not .def_510)))
(let ((.def_515 (or .def_474 .def_514)))
(let ((.def_461 (not .def_460)))
(let ((.def_513 (or .def_461 .def_512)))
(let ((.def_516 (and .def_513 .def_515)))
(let ((.def_495 (<= (- (/ 49 10)) .def_412)))
(let ((.def_517 (or .def_495 .def_516)))
(let ((.def_523 (and .def_517 .def_522)))
(let ((.def_511 (and .def_474 .def_510)))
(let ((.def_524 (and .def_511 .def_523)))
(let ((.def_442 (* b.delta__AT1 .def_441)))
(let ((.def_443 (* 5.0 .def_442)))
(let ((.def_452 (+ .def_446 .def_443)))
(let ((.def_453 (+ .def_444 .def_452)))
(let ((.def_454 (+ .def_448 .def_453)))
(let ((.def_455 (+ .def_450 .def_454)))
(let ((.def_472 (<= .def_455 0.0 )))
(let ((.def_473 (not .def_472)))
(let ((.def_493 (or .def_473 .def_474)))
(let ((.def_456 (<= 0.0 .def_455)))
(let ((.def_492 (or .def_456 .def_461)))
(let ((.def_494 (and .def_492 .def_493)))
(let ((.def_496 (or .def_494 .def_495)))
(let ((.def_457 (not .def_456)))
(let ((.def_488 (or .def_457 .def_460)))
(let ((.def_487 (or .def_472 .def_475)))
(let ((.def_489 (and .def_487 .def_488)))
(let ((.def_491 (or .def_489 .def_490)))
(let ((.def_497 (and .def_491 .def_496)))
(let ((.def_486 (and .def_456 .def_460)))
(let ((.def_498 (and .def_486 .def_497)))
(let ((.def_525 (or .def_498 .def_524)))
(let ((.def_426 (* b.delta__AT1 .def_425)))
(let ((.def_427 (* 10.0 .def_426)))
(let ((.def_421 (* b.delta__AT1 .def_420)))
(let ((.def_422 (* 10.0 .def_421)))
(let ((.def_433 (+ .def_422 .def_427)))
(let ((.def_414 (* .def_410 .def_413)))
(let ((.def_415 (* 10.0 .def_414)))
(let ((.def_434 (+ .def_415 .def_433)))
(let ((.def_435 (+ .def_417 .def_434)))
(let ((.def_436 (+ .def_409 .def_435)))
(let ((.def_429 (* (- 10.0) .def_397)))
(let ((.def_437 (+ .def_429 .def_436)))
(let ((.def_438 (+ .def_431 .def_437)))
(let ((.def_466 (<= .def_438 0.0 )))
(let ((.def_480 (not .def_466)))
(let ((.def_464 (<= b.y__AT1 .def_397)))
(let ((.def_481 (or .def_464 .def_480)))
(let ((.def_398 (<= .def_397 b.y__AT1)))
(let ((.def_478 (not .def_398)))
(let ((.def_439 (<= 0.0 .def_438)))
(let ((.def_479 (or .def_439 .def_478)))
(let ((.def_482 (and .def_479 .def_481)))
(let ((.def_476 (or .def_473 .def_475)))
(let ((.def_477 (not .def_476)))
(let ((.def_483 (or .def_477 .def_482)))
(let ((.def_468 (not .def_439)))
(let ((.def_469 (or .def_398 .def_468)))
(let ((.def_465 (not .def_464)))
(let ((.def_467 (or .def_465 .def_466)))
(let ((.def_470 (and .def_467 .def_469)))
(let ((.def_462 (or .def_457 .def_461)))
(let ((.def_463 (not .def_462)))
(let ((.def_471 (or .def_463 .def_470)))
(let ((.def_484 (and .def_471 .def_483)))
(let ((.def_440 (and .def_398 .def_439)))
(let ((.def_485 (and .def_440 .def_484)))
(let ((.def_526 (and .def_485 .def_525)))
(let ((.def_527 (and .def_71 .def_526)))
(let ((.def_39 (not b.counter.0__AT0)))
(let ((.def_37 (not b.counter.1__AT0)))
(let ((.def_40 (and .def_37 .def_39)))
(let ((.def_403 (or .def_40 b.counter.3__AT0)))
(let ((.def_45 (not b.counter.3__AT0)))
(let ((.def_42 (not b.counter.2__AT0)))
(let ((.def_43 (and .def_40 .def_42)))
(let ((.def_402 (or .def_43 .def_45)))
(let ((.def_404 (and .def_402 .def_403)))
(let ((.def_399 (and .def_71 .def_398)))
(let ((.def_395 (or .def_392 .def_394)))
(let ((.def_385 (or .def_297 .def_307)))
(let ((.def_389 (or b.counter.3__AT1 .def_385)))
(let ((.def_386 (or b.counter.2__AT1 .def_385)))
(let ((.def_384 (or .def_302 .def_307)))
(let ((.def_387 (and .def_384 .def_386)))
(let ((.def_388 (or .def_316 .def_387)))
(let ((.def_390 (and .def_388 .def_389)))
(let ((.def_396 (and .def_390 .def_395)))
(let ((.def_400 (and .def_396 .def_399)))
(let ((.def_379 (<= 0.0 b.delta__AT0)))
(let ((.def_58 (not b.EVENT.0__AT0)))
(let ((.def_56 (not b.EVENT.1__AT0)))
(let ((.def_205 (and .def_56 .def_58)))
(let ((.def_207 (not .def_205)))
(let ((.def_380 (or .def_207 .def_379)))
(let ((.def_381 (or b.EVENT.1__AT0 .def_380)))
(let ((.def_250 (= b.bool_atom__AT0 b.bool_atom__AT1)))
(let ((.def_245 (= b.counter.0__AT0 b.counter.0__AT1)))
(let ((.def_242 (= b.counter.1__AT0 b.counter.1__AT1)))
(let ((.def_239 (= b.counter.2__AT0 b.counter.2__AT1)))
(let ((.def_237 (= b.counter.3__AT0 b.counter.3__AT1)))
(let ((.def_240 (and .def_237 .def_239)))
(let ((.def_243 (and .def_240 .def_242)))
(let ((.def_246 (and .def_243 .def_245)))
(let ((.def_375 (and .def_246 .def_250)))
(let ((.def_376 (or .def_207 .def_375)))
(let ((.def_377 (or b.EVENT.1__AT0 .def_376)))
(let ((.def_364 (* (- 10.0) b.y__AT1)))
(let ((.def_79 (* b.delta__AT0 b.delta__AT0)))
(let ((.def_88 (* (- 49.0) .def_79)))
(let ((.def_367 (+ .def_88 .def_364)))
(let ((.def_77 (* b.speed_y__AT0 b.delta__AT0)))
(let ((.def_78 (* 10.0 .def_77)))
(let ((.def_368 (+ .def_78 .def_367)))
(let ((.def_103 (* 10.0 b.y__AT0)))
(let ((.def_369 (+ .def_103 .def_368)))
(let ((.def_370 (= .def_369 0.0 )))
(let ((.def_358 (* (- 5.0) b.speed_y__AT1)))
(let ((.def_122 (* (- 49.0) b.delta__AT0)))
(let ((.def_359 (+ .def_122 .def_358)))
(let ((.def_124 (* 5.0 b.speed_y__AT0)))
(let ((.def_360 (+ .def_124 .def_359)))
(let ((.def_361 (= .def_360 0.0 )))
(let ((.def_350 (* b.speed_x__AT0 b.delta__AT0)))
(let ((.def_354 (+ .def_351 .def_350)))
(let ((.def_355 (+ b.x__AT0 .def_354)))
(let ((.def_356 (= .def_355 0.0 )))
(let ((.def_231 (= b.speed_x__AT0 b.speed_x__AT1)))
(let ((.def_357 (and .def_231 .def_356)))
(let ((.def_362 (and .def_357 .def_361)))
(let ((.def_371 (and .def_362 .def_370)))
(let ((.def_372 (or .def_207 .def_371)))
(let ((.def_228 (= b.y__AT0 b.y__AT1)))
(let ((.def_225 (= b.x__AT0 b.x__AT1)))
(let ((.def_344 (and .def_225 .def_228)))
(let ((.def_345 (and .def_231 .def_344)))
(let ((.def_234 (= b.speed_y__AT0 b.speed_y__AT1)))
(let ((.def_346 (and .def_234 .def_345)))
(let ((.def_341 (= b.delta__AT0 0.0 )))
(let ((.def_342 (and .def_205 .def_341)))
(let ((.def_343 (not .def_342)))
(let ((.def_347 (or .def_343 .def_346)))
(let ((.def_348 (or b.EVENT.1__AT0 .def_347)))
(let ((.def_333 (and .def_231 .def_234)))
(let ((.def_334 (and .def_246 .def_333)))
(let ((.def_335 (or b.bool_atom__AT0 .def_334)))
(let ((.def_308 (or b.counter.0__AT0 .def_307)))
(let ((.def_306 (or .def_39 b.counter.0__AT1)))
(let ((.def_309 (and .def_306 .def_308)))
(let ((.def_310 (and .def_297 .def_309)))
(let ((.def_311 (or b.counter.1__AT0 .def_310)))
(let ((.def_305 (or .def_37 b.counter.1__AT1)))
(let ((.def_312 (and .def_305 .def_311)))
(let ((.def_324 (and .def_302 .def_312)))
(let ((.def_325 (or b.counter.2__AT0 .def_324)))
(let ((.def_319 (and .def_39 .def_297)))
(let ((.def_320 (or b.counter.1__AT0 .def_319)))
(let ((.def_321 (and .def_305 .def_320)))
(let ((.def_322 (and b.counter.2__AT1 .def_321)))
(let ((.def_323 (or .def_42 .def_322)))
(let ((.def_326 (and .def_323 .def_325)))
(let ((.def_327 (and b.counter.3__AT1 .def_326)))
(let ((.def_328 (or b.counter.3__AT0 .def_327)))
(let ((.def_313 (and b.counter.2__AT1 .def_312)))
(let ((.def_314 (or b.counter.2__AT0 .def_313)))
(let ((.def_300 (or b.counter.1__AT0 b.counter.1__AT1)))
(let ((.def_298 (and b.counter.0__AT1 .def_297)))
(let ((.def_299 (or .def_37 .def_298)))
(let ((.def_301 (and .def_299 .def_300)))
(let ((.def_303 (and .def_301 .def_302)))
(let ((.def_304 (or .def_42 .def_303)))
(let ((.def_315 (and .def_304 .def_314)))
(let ((.def_317 (and .def_315 .def_316)))
(let ((.def_318 (or .def_45 .def_317)))
(let ((.def_329 (and .def_318 .def_328)))
(let ((.def_288 (* b.speed_y__AT0 b.speed_y__AT0)))
(let ((.def_287 (* b.speed_x__AT0 b.speed_x__AT0)))
(let ((.def_289 (+ .def_287 .def_288)))
(let ((.def_290 (* .def_286 .def_289)))
(let ((.def_292 (* (- 1.0) .def_290)))
(let ((.def_293 (+ .def_283 .def_292)))
(let ((.def_294 (+ .def_281 .def_293)))
(let ((.def_295 (= .def_294 0.0 )))
(let ((.def_274 (* b.speed_y__AT0 .def_270)))
(let ((.def_257 (* (- 2.0) b.x__AT0)))
(let ((.def_258 (* (- 1.0) .def_257)))
(let ((.def_271 (* .def_258 .def_270)))
(let ((.def_272 (* b.speed_x__AT0 .def_271)))
(let ((.def_277 (+ .def_272 .def_274)))
(let ((.def_278 (+ .def_268 .def_277)))
(let ((.def_279 (+ b.speed_y__AT1 .def_278)))
(let ((.def_280 (= .def_279 0.0 )))
(let ((.def_296 (and .def_280 .def_295)))
(let ((.def_330 (and .def_296 .def_329)))
(let ((.def_265 (not b.bool_atom__AT0)))
(let ((.def_331 (or .def_265 .def_330)))
(let ((.def_259 (* b.speed_x__AT0 .def_258)))
(let ((.def_260 (+ b.speed_y__AT0 .def_259)))
(let ((.def_261 (<= 0.0 .def_260)))
(let ((.def_262 (not .def_261)))
(let ((.def_62 (* (- 1.0) b.x__AT0)))
(let ((.def_63 (* b.x__AT0 .def_62)))
(let ((.def_255 (= b.y__AT0 .def_63)))
(let ((.def_263 (and .def_255 .def_262)))
(let ((.def_264 (= b.bool_atom__AT0 .def_263)))
(let ((.def_332 (and .def_264 .def_331)))
(let ((.def_336 (and .def_332 .def_335)))
(let ((.def_337 (and .def_225 .def_336)))
(let ((.def_338 (and .def_228 .def_337)))
(let ((.def_339 (or .def_205 .def_338)))
(let ((.def_340 (or b.EVENT.1__AT0 .def_339)))
(let ((.def_349 (and .def_340 .def_348)))
(let ((.def_373 (and .def_349 .def_372)))
(let ((.def_212 (= b.time__AT0 b.time__AT1)))
(let ((.def_226 (and .def_212 .def_225)))
(let ((.def_229 (and .def_226 .def_228)))
(let ((.def_232 (and .def_229 .def_231)))
(let ((.def_235 (and .def_232 .def_234)))
(let ((.def_247 (and .def_235 .def_246)))
(let ((.def_251 (and .def_247 .def_250)))
(let ((.def_252 (or .def_56 .def_251)))
(let ((.def_215 (* (- 1.0) b.time__AT1)))
(let ((.def_218 (+ b.delta__AT0 .def_215)))
(let ((.def_219 (+ b.time__AT0 .def_218)))
(let ((.def_220 (= .def_219 0.0 )))
(let ((.def_221 (or .def_207 .def_220)))
(let ((.def_222 (or b.EVENT.1__AT0 .def_221)))
(let ((.def_213 (or .def_205 .def_212)))
(let ((.def_214 (or b.EVENT.1__AT0 .def_213)))
(let ((.def_223 (and .def_214 .def_222)))
(let ((.def_253 (and .def_223 .def_252)))
(let ((.def_209 (= .def_207 b.event_is_timed__AT1)))
(let ((.def_206 (= b.event_is_timed__AT0 .def_205)))
(let ((.def_210 (and .def_206 .def_209)))
(let ((.def_254 (and .def_210 .def_253)))
(let ((.def_374 (and .def_254 .def_373)))
(let ((.def_378 (and .def_374 .def_377)))
(let ((.def_382 (and .def_378 .def_381)))
(let ((.def_383 (and .def_56 .def_382)))
(let ((.def_401 (and .def_383 .def_400)))
(let ((.def_405 (and .def_401 .def_404)))
(let ((.def_80 (* (- 1.0) b.speed_x__AT0)))
(let ((.def_81 (* b.speed_x__AT0 .def_80)))
(let ((.def_82 (* (- 1.0) .def_81)))
(let ((.def_113 (* 2.0 .def_82)))
(let ((.def_175 (* (- 1.0) .def_113)))
(let ((.def_176 (* b.delta__AT0 .def_175)))
(let ((.def_177 (* (- 5.0) .def_176)))
(let ((.def_95 (* b.speed_x__AT0 .def_62)))
(let ((.def_120 (* (- 5.0) .def_95)))
(let ((.def_182 (+ .def_120 .def_177)))
(let ((.def_90 (* b.x__AT0 .def_80)))
(let ((.def_118 (* (- 5.0) .def_90)))
(let ((.def_183 (+ .def_118 .def_182)))
(let ((.def_184 (+ .def_122 .def_183)))
(let ((.def_185 (+ .def_124 .def_184)))
(let ((.def_188 (<= 0.0 .def_185)))
(let ((.def_195 (not .def_188)))
(let ((.def_96 (* (- 1.0) .def_95)))
(let ((.def_91 (* (- 1.0) .def_90)))
(let ((.def_132 (+ .def_91 .def_96)))
(let ((.def_133 (+ b.speed_y__AT0 .def_132)))
(let ((.def_134 (<= 0.0 .def_133)))
(let ((.def_196 (or .def_134 .def_195)))
(let ((.def_186 (<= .def_185 0.0 )))
(let ((.def_148 (<= .def_133 0.0 )))
(let ((.def_149 (not .def_148)))
(let ((.def_194 (or .def_149 .def_186)))
(let ((.def_197 (and .def_194 .def_196)))
(let ((.def_166 (<= .def_81 (- (/ 49 10)))))
(let ((.def_198 (or .def_166 .def_197)))
(let ((.def_190 (not .def_186)))
(let ((.def_191 (or .def_148 .def_190)))
(let ((.def_135 (not .def_134)))
(let ((.def_189 (or .def_135 .def_188)))
(let ((.def_192 (and .def_189 .def_191)))
(let ((.def_171 (<= (- (/ 49 10)) .def_81)))
(let ((.def_193 (or .def_171 .def_192)))
(let ((.def_199 (and .def_193 .def_198)))
(let ((.def_187 (and .def_148 .def_186)))
(let ((.def_200 (and .def_187 .def_199)))
(let ((.def_114 (* b.delta__AT0 .def_113)))
(let ((.def_116 (* 5.0 .def_114)))
(let ((.def_126 (+ .def_120 .def_116)))
(let ((.def_127 (+ .def_118 .def_126)))
(let ((.def_128 (+ .def_122 .def_127)))
(let ((.def_129 (+ .def_124 .def_128)))
(let ((.def_146 (<= .def_129 0.0 )))
(let ((.def_147 (not .def_146)))
(let ((.def_169 (or .def_147 .def_148)))
(let ((.def_130 (<= 0.0 .def_129)))
(let ((.def_168 (or .def_130 .def_135)))
(let ((.def_170 (and .def_168 .def_169)))
(let ((.def_172 (or .def_170 .def_171)))
(let ((.def_131 (not .def_130)))
(let ((.def_162 (or .def_131 .def_134)))
(let ((.def_161 (or .def_146 .def_149)))
(let ((.def_163 (and .def_161 .def_162)))
(let ((.def_167 (or .def_163 .def_166)))
(let ((.def_173 (and .def_167 .def_172)))
(let ((.def_160 (and .def_130 .def_134)))
(let ((.def_174 (and .def_160 .def_173)))
(let ((.def_201 (or .def_174 .def_200)))
(let ((.def_97 (* b.delta__AT0 .def_96)))
(let ((.def_98 (* 10.0 .def_97)))
(let ((.def_92 (* b.delta__AT0 .def_91)))
(let ((.def_93 (* 10.0 .def_92)))
(let ((.def_105 (+ .def_93 .def_98)))
(let ((.def_83 (* .def_79 .def_82)))
(let ((.def_84 (* 10.0 .def_83)))
(let ((.def_106 (+ .def_84 .def_105)))
(let ((.def_107 (+ .def_88 .def_106)))
(let ((.def_108 (+ .def_78 .def_107)))
(let ((.def_101 (* (- 10.0) .def_63)))
(let ((.def_109 (+ .def_101 .def_108)))
(let ((.def_110 (+ .def_103 .def_109)))
(let ((.def_140 (<= .def_110 0.0 )))
(let ((.def_154 (not .def_140)))
(let ((.def_138 (<= b.y__AT0 .def_63)))
(let ((.def_155 (or .def_138 .def_154)))
(let ((.def_64 (<= .def_63 b.y__AT0)))
(let ((.def_152 (not .def_64)))
(let ((.def_111 (<= 0.0 .def_110)))
(let ((.def_153 (or .def_111 .def_152)))
(let ((.def_156 (and .def_153 .def_155)))
(let ((.def_150 (or .def_147 .def_149)))
(let ((.def_151 (not .def_150)))
(let ((.def_157 (or .def_151 .def_156)))
(let ((.def_142 (not .def_111)))
(let ((.def_143 (or .def_64 .def_142)))
(let ((.def_139 (not .def_138)))
(let ((.def_141 (or .def_139 .def_140)))
(let ((.def_144 (and .def_141 .def_143)))
(let ((.def_136 (or .def_131 .def_135)))
(let ((.def_137 (not .def_136)))
(let ((.def_145 (or .def_137 .def_144)))
(let ((.def_158 (and .def_145 .def_157)))
(let ((.def_112 (and .def_64 .def_111)))
(let ((.def_159 (and .def_112 .def_158)))
(let ((.def_202 (and .def_159 .def_201)))
(let ((.def_203 (and .def_71 .def_202)))
(let ((.def_72 (and .def_64 .def_71)))
(let ((.def_59 (or .def_56 .def_58)))
(let ((.def_49 (or .def_37 .def_39)))
(let ((.def_53 (or b.counter.3__AT0 .def_49)))
(let ((.def_50 (or b.counter.2__AT0 .def_49)))
(let ((.def_48 (or .def_39 .def_42)))
(let ((.def_51 (and .def_48 .def_50)))
(let ((.def_52 (or .def_45 .def_51)))
(let ((.def_54 (and .def_52 .def_53)))
(let ((.def_60 (and .def_54 .def_59)))
(let ((.def_73 (and .def_60 .def_72)))
(let ((.def_46 (and .def_43 .def_45)))
(let ((.def_34 (= b.speed_y__AT0 1.0 )))
(let ((.def_31 (= b.speed_x__AT0 1.0 )))
(let ((.def_27 (= b.y__AT0 10.0 )))
(let ((.def_23 (= b.x__AT0 0.0 )))
(let ((.def_19 (= b.time__AT0 0.0 )))
(let ((.def_21 (and .def_19 b.event_is_timed__AT0)))
(let ((.def_24 (and .def_21 .def_23)))
(let ((.def_28 (and .def_24 .def_27)))
(let ((.def_32 (and .def_28 .def_31)))
(let ((.def_35 (and .def_32 .def_34)))
(let ((.def_47 (and .def_35 .def_46)))
(let ((.def_74 (and .def_47 .def_73)))
(let ((.def_7 (and .def_4 .def_6)))
(let ((.def_14 (or .def_7 b.counter.3__AT2)))
(let ((.def_10 (and .def_7 .def_9)))
(let ((.def_13 (or .def_10 .def_12)))
(let ((.def_15 (and .def_13 .def_14)))
(let ((.def_16 (not .def_15)))
(let ((.def_75 (and .def_16 .def_74)))
(let ((.def_204 (and .def_75 .def_203)))
(let ((.def_406 (and .def_204 .def_405)))
(let ((.def_528 (and .def_406 .def_527)))
(let ((.def_714 (and .def_528 .def_713)))
(let ((.def_836 (and .def_714 .def_835)))
.def_836)))))))))))))))))))))))))))))))))))))))))))))))))))))))))))))))))))))))))))))))))))))))))))))))))))))))))))))))))))))))))))))))))))))))))))))))))))))))))))))))))))))))))))))))))))))))))))))))))))))))))))))))))))))))))))))))))))))))))))))))))))))))))))))))))))))))))))))))))))))))))))))))))))))))))))))))))))))))))))))))))))))))))))))))))))))))))))))))))))))))))))))))))))))))))))))))))))))))))))))))))))))))))))))))))))))))))))))))))))))))))))))))))))))))))))))))))))))))))))))))))))))))))))))))))))))))))))))))))))))))))))))))))))))))))))))))))))))))))))))))))))))))))))))))))))))))))))))))))))))))))))))))))))))))))))))))))))))))))))))))))))))))))))))))))))))))))))))))))))))))))))))))))))))))))))))))))))
(check-sat)
(exit)
